c is-unsat
p cnf 12 78
-3 1 -11 0
-4 -5 -11 0
10 -2 -5 0
-2 -8 3 0
1 -8 3 0
-3 -1 -8 0
-4 -1 -2 0
-8 4 2 0
-1 10 8 0
-1 -9 2 0
2 1 8 0
-2 -9 -6 0
-4 -12 -7 0
-6 -7 -12 0
-8 -3 -9 0
-9 -4 -10 0
-3 6 9 0
-6 -8 -5 0
-2 -3 -11 0
-5 -1 -2 0
-11 -6 -3 0
-11 -1 -3 0
-4 5 -2 0
-1 -7 -9 0
4 9 -11 0
-11 -8 -4 0
-4 2 -11 0
-4 -12 -9 0
7 -10 -3 0
-7 1 -4 0
-7 -1 8 0
5 -9 -3 0
-2 7 -6 0
-3 11 -7 0
12 1 10 0
9 -7 -5 0
-7 9 -2 0
-2 11 12 0
-3 -11 -7 0
4 -8 5 0
10 -3 4 0
-8 5 3 0
3 -4 -7 0
-8 2 10 0
-6 9 -8 0
7 -5 -8 0
12 -5 8 0
-1 -4 8 0
-12 -8 10 0
-4 -9 -6 0
-2 -1 10 0
-12 6 -3 0
-8 4 10 0
1 11 -5 0
-6 -11 7 0
-4 -3 -2 0
-1 3 7 0
-11 4 7 0
-6 -5 -11 0
-8 -7 -6 0
-5 7 -4 0
-8 -11 -4 0
9 -8 -7 0
4 -9 5 0
10 -9 -1 0
-4 1 -6 0
-11 7 -9 0
-2 -1 8 0
11 3 -10 0
-3 11 -8 0
-2 6 -5 0
-6 2 -1 0
-6 -9 -11 0
-2 1 -10 0
-5 11 -1 0
-6 1 2 0
7 3 8 0
6 8 -7 0
